n=10; m=6;

15	44	67	33	20	67	27	 14	75	 75
46 	21 	7  	23 	46  	46  	11 	 38 	54 	 68
16 	89  	49 	15  	89  	45  	60 	 23  	57 	 64
11	32	28	23 	51	37	36	  3 	57 	 46
58      56 	20 	85 	53  	35 	53 	 41 	69 	 13
16  	89 	49 	15 	89 	45 	60 	 23 	57 	 64